20
attach_idx=15 shift_y=7.6747
C      -0.32851      3.79848     -0.36629
C       0.33594      2.41462     -0.25527
O       1.14753      2.18627     -1.37181
H      -1.24658      1.52298      0.70367
N      -0.67469      1.35617     -0.15663
C      -0.03907      0.05125      0.00812
H      -1.18241      3.80728      0.34607
H      -0.75248      3.94698     -1.38509
N       0.56891      4.91086      0.02971
H       0.67570      0.05307      0.86162
H       0.46986      0.16330     -0.92815
C      -0.15996      6.17933      0.04350
C       1.79904      5.11085     -0.75046
O       1.65705      4.73080     -2.08968
C       3.00691      4.45628     -0.08658
H       3.27713      4.44602     -1.14250
H       2.92469      4.86163      0.94009
H       2.69990      3.35645     -0.01934
H      -0.95962      6.16663      0.81381
H      -0.78802      6.41463     -0.98509
