
units           electron
newton          on
boundary        f f f

atom_style      electron

read_data       init.data

#pair_style      eff/cut 100.0
pair_style      eff/cut 100.0 ecp 1 O
pair_coeff      * *

compute         energies all pair eff/cut
variable        eke equal c_energies[1]
variable        epauli equal c_energies[2]
variable        ecoul equal c_energies[3]
variable        erres equal c_energies[4]

thermo          1
thermo_style    custom step etotal v_eke v_epauli v_ecoul v_erres
thermo_modify   format float %23.15g

group           atoms type 1 2
fix             freeze atoms setforce 0.0 0.0 0.0

min_style       cg
compute         1 all property/atom spin eradius erforce
dump            2 all custom 1 mini.lammpstrj id type q c_1[1] c_1[2] x y z fx fy fz c_1[3]
minimize        0 1e-6 2000 4000

write_data      final.data