30
#Model[1]: Entropic Spring with 30 atoms
C     -18.2087     -0.4440      0.0000
C     -16.9529      0.4440      0.0000
C     -15.6971     -0.4440      0.0000
C     -14.4414      0.4440      0.0000
C     -13.1856     -0.4440      0.0000
C     -11.9298      0.4440      0.0000
C     -10.6741     -0.4440      0.0000
C      -9.4183      0.4440      0.0000
C      -8.1625     -0.4440      0.0000
C      -6.9067      0.4440      0.0000
C      -5.6510     -0.4440      0.0000
C      -4.3952      0.4440      0.0000
C      -3.1394     -0.4440      0.0000
C      -1.8837      0.4440      0.0000
C      -0.6279     -0.4440      0.0000
C       0.6279      0.4440      0.0000
C       1.8837     -0.4440      0.0000
C       3.1394      0.4440      0.0000
C       4.3952     -0.4440      0.0000
C       5.6510      0.4440      0.0000
C       6.9067     -0.4440      0.0000
C       8.1625      0.4440      0.0000
C       9.4183     -0.4440      0.0000
C      10.6741      0.4440      0.0000
C      11.9298     -0.4440      0.0000
C      13.1856      0.4440      0.0000
C      14.4414     -0.4440      0.0000
C      15.6971      0.4440      0.0000
C      16.9529     -0.4440      0.0000
C      18.2087      0.4440      0.0000
