21
attach_idx=15
N 1.403670 -0.000000 0.000000
C 0.670910 -0.000700 -1.210520
C 0.670910 -0.000700 1.210520
N -1.403670 0.001770 0.000000
H 1.244620 -0.002070 2.136040
C -0.670910 0.000070 1.210510
H 1.244620 -0.002070 -2.136040
H 2.408330 -0.003150 0.000000
C -0.670910 0.000070 -1.210510
H -1.244620 -0.000660 2.136040
H -1.244620 -0.000660 -2.136040
C -2.873664 -0.002561 0.000000
C -4.413657 -0.007098 0.000000
C -5.953650 -0.011635 0.000000
C  -7.493643 -0.016172 0.000000
H -2.876875 -0.002561 -1.090000
H -2.873664 -0.002561 1.090000
H -4.410446 -0.007098 1.090000
H -4.413657 -0.007098 -1.090000
H -5.956862 -0.011635 -1.090000
H -5.953650 -0.011635 1.090000
