22
attach_idx=16
C        0.085000    -2.378790     0.383270   -0.25030 
H        3.136960     1.103380    -0.174040    0.34014 
C        1.475120    -2.266120     0.365050    0.17258 
C        0.000000     0.000000     0.000000   -0.32824 
C       -0.659390    -1.205560     0.194690   -0.02920 
N        2.128150     1.154080    -0.188920   -0.76680 
H        2.100910    -3.154810     0.506410    0.06923 
C        1.416350    -0.000000    -0.000000    0.57926 
H       -0.396310    -3.345100     0.538280    0.11259 
H        1.672060     2.042720    -0.323720    0.35143 
N        2.142240    -1.119400     0.180140   -0.50044 
H       -0.554020     0.929640    -0.150580    0.12925 
C       -2.198877    -1.244869     0.200565
C       -3.738364    -0.534179     0.206441
C       -5.277851    -1.323488     0.212316
Si      -6.817338    -0.612797     0.218191
H       -2.226700    -2.155224     0.200565
H       -2.194720    -1.244763     1.290557
H       -3.710541     0.523823     0.206441
H       -3.742521    -0.534285    -0.883552
H       -5.305674    -2.333843     0.212316
H       -5.273694    -1.323382     1.302308
