21
attach_idx=15
C       -0.076270    -2.438810     0.000070   -0.19522
H       -0.646140    -3.366590     0.000090    0.14071
C        1.290050    -2.465450     0.000030   -0.10568
C        0.000000     0.000000     0.000000   -0.15990 
C       -0.721030    -1.162710     0.000100   -0.10628 
O        2.196100     0.976400    -0.000390   -0.49615 
H        3.021270    -1.326450    -0.000250    0.24845 
C        1.455930    -0.000000    -0.000000    0.40186 
H       -0.476930     0.980580     0.000030    0.11622 
H        1.870070    -3.389920    -0.000020    0.15297
N        2.005350    -1.303820    -0.000070   -0.13397 
C       -2.259840    -1.102187     0.000044
C       -3.798650    -0.541664    -0.000013
C       -5.337461    -0.981141    -0.000069
Si      -6.876272    -0.170618    -0.000125
H       -2.217002    -2.013029     0.000044
H       -2.259880    -0.852185     1.090044
H       -3.841488     0.530822    -0.000013
H       -3.798611    -0.541665    -1.090013
H       -5.294623    -2.058017    -0.000069
H       -5.337501    -0.731139     1.089931
