21
attach_idx=15
C 2.135520 0.000000 1.249150
C 1.295960 0.000000 2.456680
C 1.359220 0.000000 -0.000000
N -0.711950 0.000000 1.175820
H 1.910310 0.000000 -0.941170
C 0.000000 0.000000 -0.000000
H 1.797880 0.000000 3.424970
O 3.367230 0.000000 1.280860
C -0.061460 0.000000 2.386730
H -0.596950 0.000000 -0.913790
H -0.704650 0.000000 3.268580
C -2.181463 0.000000 1.137987
C -3.720953 0.000000 1.098351
C -5.260443 0.000000 1.058716
C  -6.799933 0.000000 1.019081
H -2.181463 0.000000 0.047987
H -2.209516 0.000000 2.227625
H -3.720953 0.000000 2.188351
H -3.692900 0.000000 0.008713
H -5.260443 0.000000 -0.031284
H -5.288496 0.000000 2.148355
