24
lvs  7.725  0.000  0.000    0.000  6.690  0.000    0.000  0.000 48.472
F 0.965618 1.672527 0.000038 -1.000000
Ca 4.828016 3.902482 0.813726 2.000000
F 4.828064 3.902444 3.242510 -1.000000
F 2.896840 2.787505 1.629682 -1.000000
Ca 2.896926 2.787464 4.055481 2.000000
F 0.965604 1.672488 4.875641 -1.000000
F 2.896839 5.017472 0.000006 -1.000000
F 4.828084 6.132452 1.629678 -1.000000
Ca 4.828106 6.132395 4.055535 2.000000
F 2.896823 5.017505 4.875553 -1.000000
Ca 2.896811 0.557489 0.813886 2.000000
F 2.896874 0.557553 3.242563 -1.000000
F 4.828077 1.672512 0.000034 -1.000000
F 6.759302 2.787491 1.629652 -1.000000
Ca 6.759354 2.787478 4.055249 2.000000
F 4.828062 1.672496 4.875623 -1.000000
F 6.759309 5.017512 0.000000 -1.000000
F 6.759311 5.017498 4.875562 -1.000000
Ca 6.759313 0.557473 0.813806 2.000000
F 6.759328 0.557492 3.242583 -1.000000
Ca 0.965583 3.902509 0.813917 2.000000
F 0.965579 3.902468 3.242548 -1.000000
F 0.965615 6.132466 1.629709 -1.000000
Ca 0.965606 6.132478 4.055587 2.000000
