159
lvs 50.00000 0.0 0.0    0.0 23.02410 0.0    0.0 0.0 30.00000 | Generated by GUI Builder | 3D PBC
C      10.73866    3.79848   15.17676    0.00000
C      11.40311    2.41462   15.28778    0.00000
O      12.21470    2.18627   14.17124    0.00000
H       9.82059    1.52298   16.24672    0.00000
N      10.39248    1.35617   15.38642    0.00000
C      11.02810    0.05125   15.55117    0.00000
H       9.88476    3.80728   15.88912    0.00000
H      10.31469    3.94698   14.15796    0.00000
N      11.63608    4.91086   15.57276    0.00000
H      11.74287    0.05307   16.40467    0.00000
H      11.53703    0.16330   14.61490    0.00000
C      10.90721    6.17933   15.58655    0.00000
C      12.86621    5.11085   14.79259    0.00000
O      12.72422    4.73080   13.45337    0.00000
C      14.07408    4.45628   15.45647    0.00000
H      14.34430    4.44602   14.40055    0.00000
H      13.99186    4.86163   16.48314    0.00000
H      13.76707    3.35645   15.52371    0.00000
H      10.10755    6.16663   16.35686    0.00000
H      10.27915    6.41463   14.55796    0.00000
C      20.97642   10.36499   15.62154   -0.25030
H      24.02838   13.84716   15.06423    0.34014
C      22.36654   10.47766   15.60332    0.17258
C      20.89142   12.74378   15.23827   -0.32824
C      20.23203   11.53822   15.43296   -0.02920
N      23.01957   13.89786   15.04935   -0.76680
H      22.99233    9.58897   15.74468    0.06923
C      22.30777   12.74378   15.23827    0.57926
H      20.49511    9.39868   15.77655    0.11259
H      22.56348   14.78650   14.91455    0.35143
N      23.03366   11.62438   15.41841   -0.50044
H      20.33740   13.67342   15.08769    0.12925
C      18.69254   11.49891   15.43884    0.00000
C      17.15305   12.20960   15.44472    0.00000
C      15.61357   11.42029   15.45059    0.00000
H      18.66472   10.58855   15.43884    0.00000
H      18.69670   11.49901   16.52883    0.00000
H      17.18088   13.26760   15.44472    0.00000
H      17.14890   12.20949   14.35472    0.00000
H      15.58574   10.40993   15.45059    0.00000
H      15.61772   11.42039   16.54058    0.00000
C      10.73866   11.47318   15.17676    0.00000
C      11.40311   10.08932   15.28778    0.00000
O      12.21470    9.86097   14.17124    0.00000
H       9.82059    9.19768   16.24672    0.00000
N      10.39248    9.03087   15.38642    0.00000
C      11.02810    7.72595   15.55117    0.00000
H       9.88476   11.48198   15.88912    0.00000
H      10.31469   11.62168   14.15796    0.00000
N      11.63608   12.58556   15.57276    0.00000
H      11.74287    7.72777   16.40467    0.00000
H      11.53703    7.83800   14.61490    0.00000
C      10.90721   13.85403   15.58655    0.00000
C      12.86621   12.78555   14.79259    0.00000
O      12.72422   12.40550   13.45337    0.00000
C      14.07408   12.13098   15.45647    0.00000
H      13.99186   12.53633   16.48314    0.00000
H      13.76707   11.03115   15.52371    0.00000
H      10.10755   13.84133   16.35686    0.00000
H      10.27915   14.08933   14.55796    0.00000
C      10.73866   19.14788   15.17676    0.00000
C      11.40311   17.76402   15.28778    0.00000
O      12.21470   17.53567   14.17124    0.00000
H       9.82059   16.87238   16.24672    0.00000
N      10.39248   16.70557   15.38642    0.00000
C      11.02810   15.40065   15.55117    0.00000
H       9.88476   19.15668   15.88912    0.00000
H      10.31469   19.29638   14.15796    0.00000
N      11.63608   20.26026   15.57276    0.00000
H      11.74287   15.40247   16.40467    0.00000
H      11.53703   15.51270   14.61490    0.00000
C      10.90721   21.52873   15.58655    0.00000
C      12.86621   20.46025   14.79259    0.00000
O      12.72422   20.08020   13.45337    0.00000
C      14.07408   19.80568   15.45647    0.00000
H      14.34430   19.79542   14.40055    0.00000
H      13.99186   20.21103   16.48314    0.00000
H      13.76707   18.70585   15.52371    0.00000
H      10.10755   21.51603   16.35686    0.00000
H      10.27915   21.76403   14.55796    0.00000
C      39.26134    3.79848   15.17676    0.00000
C      38.59689    2.41462   15.28778    0.00000
O      37.78530    2.18627   14.17124    0.00000
H      40.17941    1.52298   16.24672    0.00000
N      39.60752    1.35617   15.38642    0.00000
C      38.97190    0.05125   15.55117    0.00000
H      40.11524    3.80728   15.88912    0.00000
H      39.68531    3.94698   14.15796    0.00000
N      38.36392    4.91086   15.57276    0.00000
H      38.25713    0.05307   16.40467    0.00000
H      38.46297    0.16330   14.61490    0.00000
C      39.09279    6.17933   15.58655    0.00000
C      37.13379    5.11085   14.79259    0.00000
O      37.27578    4.73080   13.45337    0.00000
C      35.92592    4.45628   15.45647    0.00000
H      35.65570    4.44602   14.40055    0.00000
H      36.00814    4.86163   16.48314    0.00000
H      36.23293    3.35645   15.52371    0.00000
H      39.89245    6.16663   16.35686    0.00000
H      39.72085    6.41463   14.55796    0.00000
C      29.12592    9.86279   15.45666   -0.19522
H      29.69579    8.93501   15.45668    0.14071
C      27.75960    9.83615   15.45662   -0.10568
C      29.04965   12.30160   15.45659   -0.15990
C      29.77068   11.13889   15.45669   -0.10628
O      26.85355   13.27800   15.45620   -0.49615
H      26.02838   10.97515   15.45634    0.24845
C      27.59372   12.30160   15.45659    0.40186
H      29.52658   13.28218   15.45662    0.11622
H      27.17958    8.91168   15.45657    0.15297
N      27.04430   10.99778   15.45652   -0.13397
C      31.30949   11.19941   15.45663    0.00000
C      32.84830   11.75993   15.45658    0.00000
C      34.38711   11.32046   15.45652    0.00000
H      31.26665   10.28857   15.45663    0.00000
H      31.30953   11.44941   16.54663    0.00000
H      32.89114   12.83242   15.45658    0.00000
H      32.84826   11.75993   14.36658    0.00000
H      34.34427   10.24358   15.45652    0.00000
H      34.38715   11.57046   16.54652    0.00000
C      39.26134   11.47318   15.17676    0.00000
C      38.59689   10.08932   15.28778    0.00000
O      37.78530    9.86097   14.17124    0.00000
H      40.17941    9.19768   16.24672    0.00000
N      39.60752    9.03087   15.38642    0.00000
C      38.97190    7.72595   15.55117    0.00000
H      40.11524   11.48198   15.88912    0.00000
H      39.68531   11.62168   14.15796    0.00000
N      38.36392   12.58556   15.57276    0.00000
H      38.25713    7.72777   16.40467    0.00000
H      38.46297    7.83800   14.61490    0.00000
C      39.09279   13.85403   15.58655    0.00000
C      37.13379   12.78555   14.79259    0.00000
O      37.27578   12.40550   13.45337    0.00000
C      35.92592   12.13098   15.45647    0.00000
H      36.00814   12.53633   16.48314    0.00000
H      36.23293   11.03115   15.52371    0.00000
H      39.89245   13.84133   16.35686    0.00000
H      39.72085   14.08933   14.55796    0.00000
C      39.26134   19.14788   15.17676    0.00000
C      38.59689   17.76402   15.28778    0.00000
O      37.78530   17.53567   14.17124    0.00000
H      40.17941   16.87238   16.24672    0.00000
N      39.60752   16.70557   15.38642    0.00000
C      38.97190   15.40065   15.55117    0.00000
H      40.11524   19.15668   15.88912    0.00000
H      39.68531   19.29638   14.15796    0.00000
N      38.36392   20.26026   15.57276    0.00000
H      38.25713   15.40247   16.40467    0.00000
H      38.46297   15.51270   14.61490    0.00000
C      39.09279   21.52873   15.58655    0.00000
C      37.13379   20.46025   14.79259    0.00000
O      37.27578   20.08020   13.45337    0.00000
C      35.92592   19.80568   15.45647    0.00000
H      35.65570   19.79542   14.40055    0.00000
H      36.00814   20.21103   16.48314    0.00000
H      36.23293   18.70585   15.52371    0.00000
H      39.89245   21.51603   16.35686    0.00000
H      39.72085   21.76403   14.55796    0.00000
