46
*****
C         -4.65120        3.04710       -3.84360
C         -3.28410        3.28530       -3.99840
N         -2.40600        2.76310       -3.10520
C         -2.84070        2.01120       -2.06220
H         -1.38350        2.94170       -3.22170    +0.5
C         -4.20780        1.77020       -1.90350
N         -5.10890        2.29170       -2.79860
H         -2.13080        1.59950       -1.35570
H         -4.51570        1.16740       -1.06160
H         -5.34170        3.47030       -4.56440
H         -2.92740        3.88370       -4.82730
C         -6.57120        2.08830       -2.70790
C         -7.03990        1.23320       -1.51740
H         -6.91820        1.59760       -3.64470
H         -7.06190        3.08440       -2.63310
C         -8.56180        1.08550       -1.51490
H         -6.72840        1.71970       -0.56730
H         -6.58440        0.22110       -1.58710
Si        -9.13340       -0.00000        0.00000
H         -8.90030        0.59210       -2.45070
H         -9.04310        2.08360       -1.43570
H         -8.48770       -1.40530       -0.10220
H        -10.67720       -0.13500       -0.01720
H         -8.68590        0.68140        1.31820
C          2.61800        2.00310       -0.26920
C          4.54350        3.38240       -0.13910
C          1.78880        3.12720       -0.28380
C          3.74330        4.52820       -0.15140
C          2.35740        4.39800       -0.22430
H          4.20280        5.50830       -0.10450
H          0.71370        3.00530       -0.34100
N          3.98010        2.12990       -0.19780
H          5.61230        3.52730       -0.08190
H          2.15940        1.02180       -0.31600
C          4.76620        0.87660       -0.18910
C          6.29220        1.05990       -0.11040
H          4.53420        0.30840       -1.11750
H          4.44580        0.26500        0.68390
H          6.64260        1.64330       -0.98950
C          7.00740       -0.28990       -0.10880
H          6.55470        1.59910        0.82570
H          6.77500       -0.84990       -1.03970
H          6.68820       -0.89380        0.76710
Si         9.13340       -0.00000       -0.00000 
O          1.6481         5.3886        -0.2359 
E          0.6481         5.3886        -0.2359   -0.5
